%chk=C:\G09W\ethoxide\cyclohexadienewater.chk
# rzindo=(nstates=20) scrf=(solvent=water) geom=connectivity

Title Card Required

0 1
 C                  0.11787900    1.41886500   -0.06274000
 C                  1.24659400    0.73205600   -0.11004400
 C                  1.24960800   -0.72702300    0.11027400
 C                  0.12368700   -1.41836400    0.06249700
 C                 -1.19179400   -0.72991900   -0.25781200
 C                 -1.19484700    0.72508900    0.25797300
 H                  0.10939000    2.48320000   -0.20044500
 H                  2.18462300    1.21755700   -0.29857500
 H                  2.18964100   -1.20866700    0.29850500
 H                  0.11944600   -2.48285200    0.19945800
 H                 -2.02024000   -1.27576500    0.17734300
 H                 -1.33342900    0.72535500    1.33759600
 H                 -2.02557300    1.26738800   -0.17728600
 H                 -1.33061400   -0.73044000   -1.33748300

 1 2 2.0 6 1.0 7 1.0
 2 3 1.0 8 1.0
 3 4 2.0 9 1.0
 4 5 1.0 10 1.0
 5 6 1.0 11 1.0 14 1.0
 6 12 1.0 13 1.0
 7
 8
 9
 10
 11
 12
 13
 14

