%chk=C:\G09W\ethoxide\Cyclopentadiene.chk
# opt freq hf/3-21g geom=connectivity

Title Card Required

0 1
 C                  1.06264854   -1.95973516    0.13318600
 C                  2.58450654   -1.95973516    0.13318600
 C                  3.05327954   -0.51187016    0.13318600
 C                  1.82553954    0.37769784    0.00000000
 C                  0.59344254   -0.51541516    0.02959600
 H                  0.67068654   -2.56218016   -0.72432200
 H                  2.97313354   -2.49433316   -0.77009400
 H                  3.76524054   -0.32869416   -0.71003000
 H                  1.78986254    1.12376784    0.83298400
 H                  1.86466054    0.95528284   -0.95773600
 H                 -0.01830346   -0.36779316   -0.89560700

 1 2 1.0 5 2.0 6 1.0
 2 3 2.0 7 1.0
 3 4 1.0 8 1.0
 4 5 1.0 9 1.0 10 1.0
 5 11 1.0
 6
 7
 8
 9
 10
 11

