%chk=C:\G09W\ethoxide\cycloctadienewater.chk
# rzindo=(nstates=20) scrf=(solvent=water) geom=connectivity

Title Card Required

0 1
 C                  1.86463500   -0.87162100   -0.01611400
 C                  0.55276500   -1.43919800    0.38153300
 C                 -0.62310800    1.43622000   -0.38602400
 C                 -0.44279900   -1.26171300   -0.46264900
 C                 -1.74536700    0.60967600    0.33215000
 C                 -1.84321700   -0.91048600   -0.06630700
 H                  0.38533100   -1.70314700    1.41222700
 H                 -0.19087000   -1.01315100   -1.47676100
 H                 -0.55129200    1.17368900   -1.43291400
 H                 -2.69997700    1.08880000    0.14113100
 H                  2.72987700   -1.48202900   -0.19637000
 H                 -0.95361200    2.47043600   -0.35253400
 H                 -1.56399400    0.66615700    1.39972600
 H                 -2.53610800   -1.03816300   -0.88854100
 H                 -2.20113500   -1.48558700    0.77897900
 C                  1.91133800    0.44682700   -0.13589800
 H                  2.83270100    0.91074300   -0.44297900
 C                  0.80461000    1.43288000    0.28232300
 H                  0.66150500    1.33128600    1.35452300
 H                  1.21443100    2.42545200    0.12943000

 1 2 1.0 11 1.0 16 2.0
 2 4 2.0 7 1.0
 3 5 1.0 9 1.0 12 1.0 18 1.0
 4 6 1.0 8 1.0
 5 6 1.0 10 1.0 13 1.0
 6 14 1.0 15 1.0
 7
 8
 9
 10
 11
 12
 13
 14
 15
 16 17 1.0 18 1.0
 17
 18 19 1.0 20 1.0
 19
 20

