%chk=C:\G09W\ethoxide\cyclohexadiene.chk
# opt freq hf/3-21g geom=connectivity

Title Card Required

0 1
 C                  0.66263897    1.26207390    1.30980929
 C                  1.02979425    0.09706662    0.68015561
 C                  1.86428642    0.22832644   -0.67569878
 C                  2.37586671    1.48199550   -0.95516137
 C                  1.52420476    2.70453872   -0.59847332
 C                  0.38434694    2.30099150    0.27953805
 H                  0.57693196    1.39788545    2.36768903
 H                  0.79698244   -0.86014439    1.09782263
 H                  2.07943056   -0.62169325   -1.28895202
 H                  3.36366558    1.58862945   -1.35237995
 H                  1.14154184    3.14356869   -1.49609338
 H                 -0.40240093    1.93868404   -0.34868252
 H                  0.03077065    3.17663832    0.78265479
 H                  2.13065880    3.42079605   -0.08457748

 1 2 2.0 6 1.0 7 1.0
 2 3 1.0 8 1.0
 3 4 2.0 9 1.0
 4 5 1.0 10 1.0
 5 6 1.0 11 1.0 14 1.0
 6 12 1.0 13 1.0
 7
 8
 9
 10
 11
 12
 13
 14

