%chk=C:\G09W\ethoxide\optfreqbr.chk
# opt freq hf/3-21g geom=connectivity

Title Card Required

-1 1
 C                 -3.88325720    0.35715008   -0.00000047
 H                 -3.52660277   -0.65165992   -0.00000047
 H                 -3.52658436    0.86154827    0.87365103
 H                 -4.95325720    0.35716327   -0.00000047
 C                 -3.36991498    1.08310636   -1.25740544
 H                 -3.72657084    2.09191585   -1.25740632
 C                 -3.88325513    0.35714732   -2.51480966
 H                 -4.95325513    0.35715974   -2.51481064
 H                 -3.52660021   -0.65166251   -2.51480778
 C                 -3.36991145    1.08310256   -3.77221463
 H                 -2.29991322    1.08478277   -3.77123610
 H                 -3.72498645    0.57757549   -4.64586451
 H                 -3.72816101    2.09134673   -3.77319439
 Br                -0.56991498    1.08307649   -1.25740350
 C                 -5.90012931    2.35707323   -1.09995848
 H                 -5.38419356    2.92002522   -0.35042840
 H                 -5.86928000    2.88747865   -2.02873101
 C                 -7.36578313    2.15539789   -0.67242376
 H                 -7.39668243    1.62329560    0.25537599
 H                 -7.83679838    3.10866546   -0.55273423
 H                 -7.88221206    1.59410759   -1.42285987
 O                 -5.26991498    1.08312663   -1.25740675

 1 2 1.0 3 1.0 4 1.0 5 1.0
 2
 3
 4
 5 6 1.0 7 1.0 22 1.0
 6
 7 8 1.0 9 1.0 10 1.0
 8
 9
 10 11 1.0 12 1.0 13 1.0
 11
 12
 13
 14
 15 16 1.0 17 1.0 18 1.0 22 1.0
 16
 17
 18 19 1.0 20 1.0 21 1.0
 19
 20
 21
 22

