%chk=C:\G09W\ethoxide\transitionstate.chk
# opt=qst2 freq hf/3-21g geom=connectivity

Title Card Required

-1 1
 C                  2.04704000   -1.10601200   -1.81392500
 H                  1.67586100   -2.03918500   -2.22408700
 H                  1.88610900   -0.32299700   -2.54680600
 H                  3.11290800   -1.19327200   -1.63248000
 C                  1.32935900   -0.76657600   -0.50355000
 H                  0.26700200   -0.64280600   -0.66746000
 C                  1.54284900   -1.83634600    0.56988400
 H                  2.60925000   -1.94921300    0.74409600
 H                  1.15651500   -2.78081300    0.19793900
 C                  0.82533800   -1.44945800    1.87559900
 H                 -0.22630100   -1.27251500    1.68054200
 H                  0.92713300   -2.22890900    2.62592800
 H                  1.25857300   -0.53424300    2.25559800
 Br                -2.46001000    0.03240500   -0.12901700
 C                  1.13675600    1.66384100   -0.28157100
 H                  1.26488600    1.93629600   -1.32595500
 H                  0.08395300    1.49845800   -0.09832100
 C                  1.69813900    2.76089700    0.62131200
 H                  2.76102200    2.87712500    0.44380900
 H                  1.19853900    3.70592300    0.43585700
 H                  1.55098100    2.48123200    1.65679100
 O                  1.88713000    0.46658200    0.02045600

 1 2 1.0 3 1.0 4 1.0 5 1.0
 2
 3
 4
 5 6 1.0 7 1.0 22 1.0
 6
 7 8 1.0 9 1.0 10 1.0
 8
 9
 10 11 1.0 12 1.0 13 1.0
 11
 12
 13
 14
 15 16 1.0 17 1.0 18 1.0 22 1.0
 16
 17
 18 19 1.0 20 1.0 21 1.0
 19
 20
 21
 22

Title Card Required

-1 1
 C                  0.21922600   -1.33361800    0.64487200
 H                 -0.19514300   -1.44873200    1.64031200
 H                  0.06913000   -2.25463600    0.09330800
 H                  1.28280500   -1.06142200    0.71675100
 C                 -0.41663300   -0.14773000   -0.06052700
 H                 -0.14839700   -0.12166300   -1.10278400
 C                 -0.07921900    1.16750500    0.62377500
 H                  1.01552900    1.10789600    0.72038900
 H                 -0.51821900    1.17601000    1.61597000
 C                 -0.51437000    2.41261100   -0.16251000
 H                 -1.59073800    2.44639700   -0.29084500
 H                 -0.20018000    3.31235200    0.35807300
 H                 -0.04971500    2.41977400   -1.14424400
 Br                -2.47202100   -0.42132800   -0.17939100
 C                  3.48213000    0.28444500   -0.41941600
 H                  2.92202800    0.17224700   -1.37141800
 H                  4.02095200    1.24462700   -0.54717600
 C                  4.58119500   -0.82080400   -0.45062800
 H                  4.10278100   -1.79483500   -0.41648200
 H                  5.21393700   -0.76412600   -1.33631800
 H                  5.19672000   -0.72110100    0.43759600
 O                  2.72065900    0.20740200    0.73152100

 1 2 1.0 3 1.0 4 1.0 5 1.0
 2
 3
 4
 5 6 1.0 7 1.0
 6
 7 8 1.0 9 1.0 10 1.0
 8
 9
 10 11 1.0 12 1.0 13 1.0
 11
 12
 13
 14
 15 16 1.0 17 1.0 18 1.0 22 1.0
 16
 17
 18 19 1.0 20 1.0 21 1.0
 19
 20
 21
 22

